NAME : ManP-10-1
COMMENT : Pilot. 5 postmen. Max route 2941.15=4999.955m
TYPE : TSP
DIMENSION : 11
VEHICLES : 5
SCALE : 1000
DISTANCE : 4999.955
EDGE_WEIGHT_TYPE : EXPLICIT
EDGE_WEIGHT_FORMAT : UPPER_ROW
EDGE_WEIGHT_SECTION
485.153
241.807
434.411
473.446
793.727
457.749
831.804
727.132
769.964
1102.571

721.520
332.251
950.845
314.014
935.148
1045.853
1022.943
556.724
624.504

661.606
321.514
1013.094
263.202
1058.999
954.327
997.159
1329.766

624.706
632.325
886.048
719.042
696.132
343.982
676.592

1250.919
545.956
745.914
641.241
684.074
1224.319

1235.223
1342.951
1320.040
795.145
327.413

1283.441
1178.769
1221.601
1554.208

110.113
556.218
1314.039

533.307
1291.129

766.234

DEPOT_SECTION
1
-1
EOF
